1719424
67, 7, 43, 34, 46, 26, 55, 11, 66, 64, 41, 30, 25, 29, 32, 12, 24, 61, 47, 1, 54, 13, 20, 65, 4, 48, 2, 45, 17, 27, 9, 58, 15, 8, 68, 35, 51, 39, 62, 53, 37, 44, 10, 18, 57, 14, 33, 52, 22, 31, 50, 28, 36, 59, 16, 63, 21, 3, 42, 56, 40, 5, 19, 49, 23, 60, 6, 38
